100 284
7 32 3
14 15 1
15 17 3
8 29 6
7 17 2
8 11 3
6 18 2
6 17 2
9 19 2
8 32 2
7 33 1
5 14 4
9 28 1
9 21 1
8 26 2
7 12 2
3 6 1
6 21 12
7 25 2
9 20 1
7 20 12
6 27 4
9 12 2
8 24 4
9 26 2
7 19 14
7 14 2
7 26 2
26 34 3
9 16 3
7 22 4
11 22 2
6 12 1
6 28 2
14 20 1
13 17 1
9 33 2
10 34 4
6 29 2
6 24 1
4 24 1
13 24 1
8 8 4
8 14 2
10 18 3
8 25 1
6 33 2
10 33 2
9 32 3
8 23 4
8 9 4
6 23 16
18 28 2
14 18 2
18 21 2
18 31 6
5 17 2
6 13 2
5 11 2
10 14 2
7 31 2
6 26 2
5 26 2
8 19 6
8 18 2
4 10 2
13 14 1
13 18 3
6 32 2
6 15 2
10 26 4
15 33 4
15 15 2
11 16 1
11 33 1
11 20 1
15 19 4
9 10 1
11 15 2
11 17 2
5 23 4
15 28 1
13 15 1
18 26 2
18 34 2
14 14 2
10 15 3
16 17 2
15 32 4
13 23 2
13 32 4
13 13 2
11 32 12
10 32 4
7 13 2
13 26 1
5 18 1
4 7 3
7 11 1
8 27 1
50 100 
50 100 
50 100 
50 100 
50 100 
50 100 
50 100 
50 100 
50 100 
50 100 
50 100 
50 100 
50 100 
50 100 
50 100 
50 100 
50 100 
50 100 
50 100 
50 100 
50 100 
50 100 
50 100 
50 100 
50 100 
50 100 
50 100 
50 100 
50 100 
50 100 
50 100 
50 100 
50 100 
50 100 
50 100 
50 100 
50 100 
50 100 
50 100 
50 100 
50 100 
50 100 
50 100 
50 100 
50 100 
50 100 
50 100 
50 100 
50 100 
50 100 
50 100 
50 100 
50 100 
50 100 
50 100 
50 100 
50 100 
50 100 
50 100 
50 100 
50 100 
50 100 
50 100 
50 100 
50 100 
50 100 
50 100 
50 100 
50 100 
50 100 
50 100 
50 100 
50 100 
50 100 
50 100 
50 100 
50 100 
50 100 
50 100 
50 100 
50 100 
50 100 
50 100 
50 100 
50 100 
50 100 
50 100 
50 100 
50 100 
50 100 
50 100 
50 100 
50 100 
50 100 
50 100 
50 100 
50 100 
50 100 
50 100 
50 100 
50 100 
50 100 
50 100 
50 100 
50 100 
50 100 
50 100 
50 100 
50 100 
50 100 
50 100 
50 100 
50 100 
50 100 
50 100 
50 100 
50 100 
50 100 
50 100 
50 100 
50 100 
50 100 
50 100 
50 100 
50 100 
50 100 
50 100 
50 100 
50 100 
50 100 
50 100 
50 100 
50 100 
50 100 
50 100 
50 100 
50 100 
50 100 
50 100 
50 100 
50 100 
50 100 
50 100 
50 100 
50 100 
50 100 
50 100 
50 100 
50 100 
50 100 
50 100 
50 100 
50 100 
50 100 
50 100 
50 100 
50 100 
50 100 
50 100 
50 100 
50 100 
50 100 
50 100 
50 100 
50 100 
50 100 
50 100 
50 100 
50 100 
50 100 
50 100 
50 100 
50 100 
50 100 
50 100 
50 100 
50 100 
50 100 
50 100 
50 100 
50 100 
50 100 
50 100 
50 100 
50 100 
50 100 
50 100 
50 100 
50 100 
50 100 
50 100 
50 100 
50 100 
50 100 
50 100 
50 100 
50 100 
50 100 
50 100 
50 100 
50 100 
50 100 
50 100 
50 100 
50 100 
50 100 
50 100 
50 100 
50 100 
50 100 
50 100 
50 100 
50 100 
50 100 
50 100 
50 100 
50 100 
50 100 
50 100 
50 100 
50 100 
50 100 
50 100 
50 100 
50 100 
50 100 
50 100 
50 100 
50 100 
50 100 
50 100 
50 100 
50 100 
50 100 
50 100 
50 100 
50 100 
50 100 
50 100 
50 100 
50 100 
50 100 
50 100 
50 100 
50 100 
50 100 
50 100 
50 100 
50 100 
50 100 
50 100 
50 100 
50 100 
50 100 
50 100 
50 100 
50 100 
50 100 
50 100 
50 100 
50 100 
50 100 
50 100 
50 100 
50 100 
50 100 
50 100 
50 100 
50 100 
50 100 
50 100 
50 100 
50 100 
50 100 
50 100 
50 100 
50 100 
50 100 
50 100 
50 100 
50 100 
50 100 
50 100 
50 100 
